benchmarks/VRPTW/TSPTW/solution/n40w40.004.txt.solution
1 4 15 18 33 10 34 39 9 13 24 27 26 29 2 25 16 22 14 8 40 35 7 12 36 20 21 23 30 37 11 17 6 38 28 31 19 32 3 41 5 
452
